unknown
(:binary-propagations  1000
 :decisions            1475
 :del-clause           500
 :final-checks         5
 :max-generation       1
 :max-memory           27.44
 :memory               21.94
 :mk-bool-var          2500
 :mk-clause            750
 :mk-clause-binary     1500
 :num-allocs           188578365
 :num-checks           1
 :propagations         1525
 :quant-instantiations 500
 :restarts             4
 :rlimit-count         1838662
 :time                 0.30)
